(set-info :smt-lib-version 2.6)
(set-logic UFNIA)
(set-info :source |
Generated by: Geoff Sutcliffe
Generated on: 2026-03-11
Generator: TPTPWorld
Application: Benchmarking automated theorem provers
Time limit: 120.0

These benchmarks are translations from the TPTP Library (Thousands of
Problems for Theorem Provers), see http://www.cs.miami.edu/~tptp/

The TPTP is maintained by Geoff Sutcliffe, and he contributed this
selection of benchmarks to SMT-LIB.  They were exported from the
v9.2.1 realease of TPTP.
|)
(set-info :category "industrial")
(set-info :status unknown)
; SZS status Success
(declare-sort $$unsorted 0)
(declare-sort tptp.uni 0)
(declare-sort tptp.ty 0)
(declare-fun tptp.sort1 (tptp.ty tptp.uni) Bool)
(declare-fun tptp.witness1 (tptp.ty) tptp.uni)
(assert (forall ((A tptp.ty)) (tptp.sort1 A (tptp.witness1 A))))
(declare-fun tptp.int () tptp.ty)
(declare-fun tptp.real () tptp.ty)
(declare-sort tptp.bool1 0)
(declare-fun tptp.bool () tptp.ty)
(declare-fun tptp.true1 () tptp.bool1)
(declare-fun tptp.false1 () tptp.bool1)
(declare-fun tptp.match_bool1 (tptp.ty tptp.bool1 tptp.uni tptp.uni) tptp.uni)
(assert (forall ((A tptp.ty) (X tptp.bool1) (X1 tptp.uni) (X2 tptp.uni)) (tptp.sort1 A (tptp.match_bool1 A X X1 X2))))
(assert (forall ((A tptp.ty) (Z tptp.uni) (Z1 tptp.uni)) (=> (tptp.sort1 A Z) (= (tptp.match_bool1 A tptp.true1 Z Z1) Z))))
(assert (forall ((A tptp.ty) (Z tptp.uni) (Z1 tptp.uni)) (=> (tptp.sort1 A Z1) (= (tptp.match_bool1 A tptp.false1 Z Z1) Z1))))
(assert (not (= tptp.true1 tptp.false1)))
(assert (forall ((U tptp.bool1)) (or (= U tptp.true1) (= U tptp.false1))))
(declare-sort tptp.tuple02 0)
(declare-fun tptp.tuple0 () tptp.ty)
(declare-fun tptp.tuple03 () tptp.tuple02)
(assert (forall ((U tptp.tuple02)) (= U tptp.tuple03)))
(declare-fun tptp.qtmark () tptp.ty)
(assert (forall ((X Int) (Y Int) (Z Int)) (=> (<= X Y) (=> (<= 0 Z) (<= (* X Z) (* Y Z))))))
(declare-fun tptp.ref (tptp.ty) tptp.ty)
(declare-fun tptp.mk_ref (tptp.ty tptp.uni) tptp.uni)
(assert (forall ((A tptp.ty) (X tptp.uni)) (tptp.sort1 (tptp.ref A) (tptp.mk_ref A X))))
(declare-fun tptp.contents (tptp.ty tptp.uni) tptp.uni)
(assert (forall ((A tptp.ty) (X tptp.uni)) (tptp.sort1 A (tptp.contents A X))))
(assert (forall ((A tptp.ty) (U tptp.uni)) (=> (tptp.sort1 A U) (= (tptp.contents A (tptp.mk_ref A U)) U))))
(assert (forall ((A tptp.ty) (U tptp.uni)) (=> (tptp.sort1 (tptp.ref A) U) (= U (tptp.mk_ref A (tptp.contents A U))))))
(declare-fun tptp.map (tptp.ty tptp.ty) tptp.ty)
(declare-fun tptp.get (tptp.ty tptp.ty tptp.uni tptp.uni) tptp.uni)
(assert (forall ((A tptp.ty) (B tptp.ty) (X tptp.uni) (X1 tptp.uni)) (tptp.sort1 B (tptp.get B A X X1))))
(declare-fun tptp.set (tptp.ty tptp.ty tptp.uni tptp.uni tptp.uni) tptp.uni)
(assert (forall ((A tptp.ty) (B tptp.ty) (X tptp.uni) (X1 tptp.uni) (X2 tptp.uni)) (tptp.sort1 (tptp.map A B) (tptp.set B A X X1 X2))))
(assert (forall ((A tptp.ty) (B tptp.ty) (M tptp.uni) (A1 tptp.uni) (A2 tptp.uni) (B1 tptp.uni)) (=> (tptp.sort1 B B1) (=> (= A1 A2) (= (tptp.get B A (tptp.set B A M A1 B1) A2) B1)))))
(assert (forall ((A tptp.ty) (B tptp.ty) (M tptp.uni) (A1 tptp.uni) (A2 tptp.uni)) (=> (tptp.sort1 A A1) (=> (tptp.sort1 A A2) (forall ((B1 tptp.uni)) (=> (not (= A1 A2)) (= (tptp.get B A (tptp.set B A M A1 B1) A2) (tptp.get B A M A2))))))))
(declare-fun tptp.const (tptp.ty tptp.ty tptp.uni) tptp.uni)
(assert (forall ((A tptp.ty) (B tptp.ty) (X tptp.uni)) (tptp.sort1 (tptp.map A B) (tptp.const B A X))))
(assert (forall ((A tptp.ty) (B tptp.ty) (B1 tptp.uni) (A1 tptp.uni)) (=> (tptp.sort1 B B1) (= (tptp.get B A (tptp.const B A B1) A1) B1))))
(declare-fun tptp.array (tptp.ty) tptp.ty)
(declare-fun tptp.mk_array1 (tptp.ty Int tptp.uni) tptp.uni)
(assert (forall ((A tptp.ty) (X Int) (X1 tptp.uni)) (tptp.sort1 (tptp.array A) (tptp.mk_array1 A X X1))))
(declare-fun tptp.length1 (tptp.ty tptp.uni) Int)
(assert (forall ((A tptp.ty) (U Int) (U1 tptp.uni)) (= (tptp.length1 A (tptp.mk_array1 A U U1)) U)))
(declare-fun tptp.elts (tptp.ty tptp.uni) tptp.uni)
(assert (forall ((A tptp.ty) (X tptp.uni)) (tptp.sort1 (tptp.map tptp.int A) (tptp.elts A X))))
(assert (forall ((A tptp.ty) (U Int) (U1 tptp.uni)) (=> (tptp.sort1 (tptp.map tptp.int A) U1) (= (tptp.elts A (tptp.mk_array1 A U U1)) U1))))
(assert (forall ((A tptp.ty) (U tptp.uni)) (= U (tptp.mk_array1 A (tptp.length1 A U) (tptp.elts A U)))))
(declare-fun tptp.get2 (tptp.ty tptp.uni Int) tptp.uni)
(assert (forall ((A tptp.ty) (X tptp.uni) (X1 Int)) (tptp.sort1 A (tptp.get2 A X X1))))
(declare-fun tptp.t2tb (Int) tptp.uni)
(assert (forall ((X Int)) (tptp.sort1 tptp.int (tptp.t2tb X))))
(declare-fun tptp.tb2t (tptp.uni) Int)
(assert (forall ((I Int)) (= (tptp.tb2t (tptp.t2tb I)) I)))
(assert (forall ((J tptp.uni)) (= (tptp.t2tb (tptp.tb2t J)) J)))
(assert (forall ((A tptp.ty) (A1 tptp.uni) (I Int)) (= (tptp.get2 A A1 I) (tptp.get A tptp.int (tptp.elts A A1) (tptp.t2tb I)))))
(declare-fun tptp.set2 (tptp.ty tptp.uni Int tptp.uni) tptp.uni)
(assert (forall ((A tptp.ty) (X tptp.uni) (X1 Int) (X2 tptp.uni)) (tptp.sort1 (tptp.array A) (tptp.set2 A X X1 X2))))
(assert (forall ((A tptp.ty) (A1 tptp.uni) (I Int) (V tptp.uni)) (= (tptp.set2 A A1 I V) (tptp.mk_array1 A (tptp.length1 A A1) (tptp.set A tptp.int (tptp.elts A A1) (tptp.t2tb I) V)))))
(declare-fun tptp.make1 (tptp.ty Int tptp.uni) tptp.uni)
(assert (forall ((A tptp.ty) (X Int) (X1 tptp.uni)) (tptp.sort1 (tptp.array A) (tptp.make1 A X X1))))
(assert (forall ((A tptp.ty) (N Int) (V tptp.uni)) (= (tptp.make1 A N V) (tptp.mk_array1 A N (tptp.const A tptp.int V)))))
(declare-sort tptp.array_int 0)
(declare-fun tptp.appear_twice1 (tptp.array_int Int Int) Bool)
(declare-fun tptp.t2tb1 (tptp.array_int) tptp.uni)
(assert (forall ((X tptp.array_int)) (tptp.sort1 (tptp.array tptp.int) (tptp.t2tb1 X))))
(declare-fun tptp.tb2t1 (tptp.uni) tptp.array_int)
(assert (forall ((I tptp.array_int)) (= (tptp.tb2t1 (tptp.t2tb1 I)) I)))
(assert (forall ((J tptp.uni)) (= (tptp.t2tb1 (tptp.tb2t1 J)) J)))
(assert (forall ((A tptp.array_int) (V Int) (U Int)) (= (tptp.appear_twice1 A V U) (exists ((I Int)) (and (<= 0 I) (< I U) (= (tptp.tb2t (tptp.get2 tptp.int (tptp.t2tb1 A) I)) V) (exists ((J Int)) (and (<= 0 J) (< J U) (not (= J I)) (= (tptp.tb2t (tptp.get2 tptp.int (tptp.t2tb1 A) J)) V))))))))
(declare-sort tptp.map_int_int 0)
(declare-fun tptp.t2tb2 (tptp.map_int_int) tptp.uni)
(assert (forall ((X tptp.map_int_int)) (tptp.sort1 (tptp.map tptp.int tptp.int) (tptp.t2tb2 X))))
(declare-fun tptp.tb2t2 (tptp.uni) tptp.map_int_int)
(assert (forall ((I tptp.map_int_int)) (= (tptp.tb2t2 (tptp.t2tb2 I)) I)))
(assert (forall ((J tptp.uni)) (= (tptp.t2tb2 (tptp.tb2t2 J)) J)))
(declare-fun tptp.t2tb3 (tptp.bool1) tptp.uni)
(assert (forall ((X tptp.bool1)) (tptp.sort1 tptp.bool (tptp.t2tb3 X))))
(declare-fun tptp.tb2t3 (tptp.uni) tptp.bool1)
(assert (forall ((I tptp.bool1)) (= (tptp.tb2t3 (tptp.t2tb3 I)) I)))
(assert (forall ((J tptp.uni)) (=> (tptp.sort1 tptp.bool J) (= (tptp.t2tb3 (tptp.tb2t3 J)) J))))
(declare-sort tptp.map_int_bool 0)
(declare-fun tptp.t2tb4 (tptp.map_int_bool) tptp.uni)
(assert (forall ((X tptp.map_int_bool)) (tptp.sort1 (tptp.map tptp.int tptp.bool) (tptp.t2tb4 X))))
(declare-fun tptp.tb2t4 (tptp.uni) tptp.map_int_bool)
(assert (forall ((I tptp.map_int_bool)) (= (tptp.tb2t4 (tptp.t2tb4 I)) I)))
(assert (forall ((J tptp.uni)) (=> (tptp.sort1 (tptp.map tptp.int tptp.bool) J) (= (tptp.t2tb4 (tptp.tb2t4 J)) J))))
(assert (not (forall ((A Int) (A1 tptp.map_int_int) (N Int)) (let ((_let_1 (<= 0 N))) (=> (and (<= 0 A) (= A (+ N 2)) (<= 2 N) (forall ((I Int)) (let ((_let_1 (tptp.tb2t (tptp.get tptp.int tptp.int (tptp.t2tb2 A1) (tptp.t2tb I))))) (=> (and (<= 0 I) (< I A)) (and (<= 0 _let_1) (< _let_1 N))))) (exists ((V1 Int)) (and (tptp.appear_twice1 (tptp.tb2t1 (tptp.mk_array1 tptp.int A (tptp.t2tb2 A1))) V1 (+ N 2)) (exists ((V2 Int)) (and (tptp.appear_twice1 (tptp.tb2t1 (tptp.mk_array1 tptp.int A (tptp.t2tb2 A1))) V2 (+ N 2)) (not (= V2 V1))))))) (=> _let_1 (=> _let_1 (=> (<= 0 (+ N 1)) (forall ((V2 Int) (V1 Int) (Deja_vu tptp.map_int_bool)) (let ((_let_1 (tptp.tb2t1 (tptp.mk_array1 tptp.int A (tptp.t2tb2 A1))))) (let ((_let_2 (- 1))) (let ((_let_3 (= V2 _let_2))) (let ((_let_4 (= V1 _let_2))) (let ((_let_5 (+ (+ N 1) 1))) (=> (and (=> _let_4 _let_3) (=> (not _let_4) (tptp.appear_twice1 _let_1 V1 _let_5)) (=> (not _let_3) (and (tptp.appear_twice1 _let_1 V2 _let_5) (not (= V2 V1)))) (forall ((V Int)) (let ((_let_1 (= (tptp.tb2t3 (tptp.get tptp.bool tptp.int (tptp.t2tb4 Deja_vu) (tptp.t2tb V))) tptp.true1))) (=> (and (<= 0 V) (< V N)) (or (and _let_1 (exists ((J Int)) (and (<= 0 J) (< J (+ (+ N 1) 1)) (= (tptp.tb2t (tptp.get tptp.int tptp.int (tptp.t2tb2 A1) (tptp.t2tb J))) V)))) (and (not _let_1) (forall ((J Int)) (=> (and (<= 0 J) (< J (+ (+ N 1) 1))) (not (= (tptp.tb2t (tptp.get tptp.int tptp.int (tptp.t2tb2 A1) (tptp.t2tb J))) V))))))))) (=> _let_4 (forall ((V Int)) (=> (and (<= 0 V) (< V N)) (not (tptp.appear_twice1 (tptp.tb2t1 (tptp.mk_array1 tptp.int A (tptp.t2tb2 A1))) V (+ (+ N 1) 1)))))) (=> _let_3 (forall ((V Int)) (=> (and (<= 0 V) (< V N)) (=> (not (= V V1)) (not (tptp.appear_twice1 (tptp.tb2t1 (tptp.mk_array1 tptp.int A (tptp.t2tb2 A1))) V (+ (+ N 1) 1)))))))) (tptp.appear_twice1 _let_1 V1 (+ N 2)))))))))))))))))
(check-sat)
(exit)
